nNurses = 113;
nHours = 31;
minHours = 10;
maxHours = 12;
maxConsec = 6;
maxPresence = 31;
demand = [19, 20, 20, 17, 17, 20, 23, 23, 18, 15, 16, 11, 6, 9, 11, 7, 6, 6, 9, 6, 10, 11, 14, 13, 8, 11, 12, 17, 18, 16, 21];
